(set-option :print-success false)
(set-logic QF_UF)
(declare-sort x80 0)
(declare-sort x35 0)
(declare-fun x101 (x35 x35) x35)
(declare-fun x18 () x35)
(declare-fun x1 (x35 x35) x35)
(declare-fun x68 () x35)
(declare-fun x87 () x35)
(declare-fun x34 () x35)
(declare-fun x108 () x35)
(assert (or (and (not (= (x101 x18 x18) x18)) (and (and (not (= x34 (x101 x34 x18))) (and (not (= x68 (x101 x68 x18))) (not (= (x101 x87 x18) x87)))) (not (= x108 (x101 x108 x18))))) (or (or (and (and (and (and (not (= (x101 x87 x34) x87)) (not (= (x101 x68 x34) x68))) (not (= x34 (x101 x34 x34)))) (not (= (x101 x108 x34) x108))) (not (= (x101 x18 x34) x18))) (or (and (and (and (not (= (x101 x34 x68) x34)) (and (not (= x87 (x101 x87 x68))) (not (= x68 (x101 x68 x68))))) (not (= x108 (x101 x108 x68)))) (not (= x18 (x101 x18 x68)))) (and (not (= (x101 x18 x87) x18)) (and (and (not (= (x101 x34 x87) x34)) (and (not (= (x101 x68 x87) x68)) (not (= (x101 x87 x87) x87)))) (not (= x108 (x101 x108 x87))))))) (and (not (= x18 (x101 x18 x108))) (and (and (and (not (= (x101 x87 x108) x87)) (not (= (x101 x68 x108) x68))) (not (= x34 (x101 x34 x108)))) (not (= (x101 x108 x108) x108)))))))
(assert (let ((x88 (x101 x34 x87)) (x115 (x101 x108 x34)) (x140 (x101 x87 x34)) (x102 (x101 x108 x87)) (x79 (x101 x108 x18)) (x151 (x101 x68 x18)) (x123 (x101 x87 x18)) (x137 (x101 x34 x34)) (x91 (x101 x18 x68)) (x38 (x101 x34 x68)) (x118 (x101 x68 x108)) (x154 (x101 x34 x108)) (x78 (x101 x108 x108)) (x32 (x101 x18 x87)) (x67 (x101 x108 x68)) (x71 (x101 x18 x108)) (x105 (x101 x34 x18)) (x75 (x101 x68 x68)) (x96 (x101 x87 x68)) (x2 (x101 x87 x108)) (x55 (x101 x18 x34)) (x69 (x101 x68 x34)) (x7 (x101 x87 x87)) (x153 (x101 x68 x87)) (x143 (x101 x18 x18))) (and (and (and (and (and (and (and (and (or (or (or (= x75 x34) (or (= x75 x87) (= x75 x68))) (= x108 x75)) (= x75 x18)) (or (= x153 x18) (or (= x108 x153) (or (= x153 x34) (or (= x153 x68) (= x87 x153)))))) (or (or (or (= x69 x34) (or (= x69 x87) (= x68 x69))) (= x108 x69)) (= x18 x69))) (or (or (or (= x34 x118) (or (= x118 x68) (= x118 x87))) (= x118 x108)) (= x118 x18))) (or (= x151 x18) (or (or (= x34 x151) (or (= x87 x151) (= x68 x151))) (= x151 x108)))) (and (or (= x123 x18) (or (= x108 x123) (or (or (= x123 x87) (= x123 x68)) (= x34 x123)))) (and (and (or (or (= x108 x140) (or (= x34 x140) (or (= x140 x87) (= x68 x140)))) (= x18 x140)) (and (or (= x18 x7) (or (= x108 x7) (or (= x34 x7) (or (= x7 x68) (= x7 x87))))) (or (= x96 x18) (or (= x96 x108) (or (= x96 x34) (or (= x96 x68) (= x87 x96))))))) (or (or (= x108 x2) (or (= x34 x2) (or (= x87 x2) (= x68 x2)))) (= x2 x18))))) (and (or (or (or (= x34 x105) (or (= x68 x105) (= x105 x87))) (= x105 x108)) (= x18 x105)) (and (or (= x154 x18) (or (= x108 x154) (or (= x154 x34) (or (= x87 x154) (= x68 x154))))) (and (or (or (= x108 x137) (or (or (= x137 x87) (= x68 x137)) (= x137 x34))) (= x137 x18)) (and (or (or (or (or (= x88 x87) (= x88 x68)) (= x34 x88)) (= x88 x108)) (= x18 x88)) (or (= x18 x38) (or (or (= x38 x34) (or (= x87 x38) (= x38 x68))) (= x108 x38)))))))) (and (and (and (and (or (or (= x108 x102) (or (= x34 x102) (or (= x102 x68) (= x87 x102)))) (= x102 x18)) (or (or (= x108 x67) (or (= x67 x34) (or (= x67 x68) (= x67 x87)))) (= x18 x67))) (or (= x115 x18) (or (= x115 x108) (or (or (= x115 x87) (= x68 x115)) (= x34 x115))))) (or (= x78 x18) (or (or (or (= x78 x87) (= x78 x68)) (= x34 x78)) (= x78 x108)))) (or (= x79 x18) (or (or (= x34 x79) (or (= x79 x68) (= x87 x79))) (= x108 x79))))) (and (and (and (or (or (or (= x34 x55) (or (= x87 x55) (= x68 x55))) (= x108 x55)) (= x18 x55)) (and (or (or (= x108 x91) (or (= x91 x34) (or (= x91 x68) (= x91 x87)))) (= x18 x91)) (or (or (= x108 x32) (or (or (= x32 x68) (= x87 x32)) (= x34 x32))) (= x18 x32)))) (or (= x71 x18) (or (= x108 x71) (or (= x71 x34) (or (= x87 x71) (= x68 x71)))))) (or (= x143 x18) (or (or (or (= x87 x143) (= x143 x68)) (= x143 x34)) (= x108 x143)))))))
(assert (or (or (and (not (= (x101 x108 (x101 x108 x18)) x18)) (and (and (not (= x34 (x101 x108 (x101 x108 x34)))) (and (not (= x68 (x101 x108 (x101 x108 x68)))) (not (= x87 (x101 x108 (x101 x108 x87)))))) (not (= (x101 x108 (x101 x108 x108)) x108)))) (or (or (and (not (= (x101 x87 (x101 x87 x18)) x18)) (and (not (= x108 (x101 x87 (x101 x87 x108)))) (and (not (= x34 (x101 x87 (x101 x87 x34)))) (and (not (= x68 (x101 x87 (x101 x87 x68)))) (not (= x87 (x101 x87 (x101 x87 x87)))))))) (and (not (= (x101 x68 (x101 x68 x18)) x18)) (and (not (= x108 (x101 x68 (x101 x68 x108)))) (and (and (not (= x68 (x101 x68 (x101 x68 x68)))) (not (= (x101 x68 (x101 x68 x87)) x87))) (not (= (x101 x68 (x101 x68 x34)) x34)))))) (and (not (= x18 (x101 x34 (x101 x34 x18)))) (and (not (= (x101 x34 (x101 x34 x108)) x108)) (and (not (= x34 (x101 x34 (x101 x34 x34)))) (and (not (= x87 (x101 x34 (x101 x34 x87)))) (not (= (x101 x34 (x101 x34 x68)) x68)))))))) (and (not (= x18 (x101 x18 (x101 x18 x18)))) (and (and (and (not (= (x101 x18 (x101 x18 x87)) x87)) (not (= (x101 x18 (x101 x18 x68)) x68))) (not (= (x101 x18 (x101 x18 x34)) x34))) (not (= (x101 x18 (x101 x18 x108)) x108))))))
(assert (let ((x71 (x101 x108 x18)) (x69 (x101 x34 x68)) (x55 (x101 x34 x18)) (x151 (x101 x18 x68)) (x123 (x101 x18 x87)) (x79 (x101 x18 x108)) (x32 (x101 x87 x18)) (x154 (x101 x108 x34)) (x96 (x101 x68 x87)) (x118 (x101 x108 x68)) (x143 (x101 x18 x18)) (x75 (x101 x68 x68)) (x7 (x101 x87 x87)) (x153 (x101 x87 x68)) (x38 (x101 x68 x34)) (x91 (x101 x68 x18)) (x102 (x101 x87 x108)) (x2 (x101 x108 x87)) (x140 (x101 x34 x87)) (x115 (x101 x34 x108)) (x137 (x101 x34 x34)) (x78 (x101 x108 x108)) (x67 (x101 x68 x108)) (x105 (x101 x18 x34)) (x88 (x101 x87 x34))) (or (and (not (= x18 (x101 x143 x143))) (and (and (and (not (= x87 (x101 x32 x32))) (not (= x68 (x101 x91 x91)))) (not (= (x101 x55 x55) x34))) (not (= (x101 x71 x71) x108)))) (or (or (or (and (not (= x18 (x101 x123 x123))) (and (not (= x108 (x101 x2 x2))) (and (not (= x34 (x101 x140 x140))) (and (not (= x68 (x101 x96 x96))) (not (= (x101 x7 x7) x87)))))) (and (not (= x18 (x101 x151 x151))) (and (and (not (= x34 (x101 x69 x69))) (and (not (= x68 (x101 x75 x75))) (not (= (x101 x153 x153) x87)))) (not (= (x101 x118 x118) x108))))) (and (and (and (and (not (= (x101 x88 x88) x87)) (not (= (x101 x38 x38) x68))) (not (= (x101 x137 x137) x34))) (not (= x108 (x101 x154 x154)))) (not (= (x101 x105 x105) x18)))) (and (not (= x18 (x101 x79 x79))) (and (not (= (x101 x78 x78) x108)) (and (and (not (= (x101 x102 x102) x87)) (not (= (x101 x67 x67) x68))) (not (= (x101 x115 x115) x34)))))))))
(assert (not (and (and (and (= x108 (x101 x18 x34)) (and (= x18 (x101 x18 x87)) (and (= (x101 x18 x68) x34) (and (and (= x68 (x101 x108 x108)) (and (= (x101 x108 x34) x87) (and (and (and (= x34 (x101 x34 x18)) (and (= (x101 x34 x108) x18) (and (and (= (x101 x34 x87) x87) (and (and (and (= (x101 x87 x108) x34) (and (= x18 (x101 x87 x34)) (and (and (and (and (and (= x34 (x101 x68 x34)) (and (= x68 (x101 x68 x87)) (= (x101 x68 x68) x87))) (= (x101 x68 x108) x108)) (= x18 (x101 x68 x18))) (= x68 (x101 x87 x68))) (= (x101 x87 x87) x108)))) (= (x101 x87 x18) x87)) (= (x101 x34 x68) x108))) (= (x101 x34 x34) x68)))) (= x18 (x101 x108 x68))) (= x34 (x101 x108 x87))))) (= (x101 x108 x18) x108))))) (= (x101 x18 x108) x87)) (= x68 (x101 x18 x18)))))
(assert (and (and (and (not (= x34 (x101 x34 x34))) (and (not (= (x101 x68 x68) x68)) (not (= x87 (x101 x87 x87))))) (not (= (x101 x108 x108) x108))) (not (= x18 (x101 x18 x18)))))
(assert (and (not (= x108 x18)) (and (and (not (= x34 x108)) (and (and (not (= x108 x87)) (and (not (= x87 x34)) (and (not (= x68 x18)) (and (not (= x108 x68)) (and (not (= x68 x34)) (not (= x68 x87))))))) (not (= x18 x87)))) (not (= x34 x18)))))
(assert (and (or (or (or (= (x101 (x101 x18 x34) x18) x34) (or (= x87 (x101 (x101 x18 x87) x18)) (= (x101 (x101 x18 x68) x18) x68))) (= (x101 (x101 x18 x108) x18) x108)) (= (x101 (x101 x18 x18) x18) x18)) (and (and (or (or (or (or (= x68 (x101 (x101 x34 x68) x34)) (= (x101 (x101 x34 x87) x34) x87)) (= (x101 (x101 x34 x34) x34) x34)) (= x108 (x101 (x101 x34 x108) x34))) (= (x101 (x101 x34 x18) x34) x18)) (and (or (or (= (x101 (x101 x68 x108) x68) x108) (or (= (x101 (x101 x68 x34) x68) x34) (or (= x68 (x101 (x101 x68 x68) x68)) (= (x101 (x101 x68 x87) x68) x87)))) (= x18 (x101 (x101 x68 x18) x68))) (or (or (or (or (= x87 (x101 (x101 x87 x87) x87)) (= x68 (x101 (x101 x87 x68) x87))) (= x34 (x101 (x101 x87 x34) x87))) (= x108 (x101 (x101 x87 x108) x87))) (= x18 (x101 (x101 x87 x18) x87))))) (or (= (x101 (x101 x108 x18) x108) x18) (or (= (x101 (x101 x108 x108) x108) x108) (or (= x34 (x101 (x101 x108 x34) x108)) (or (= (x101 (x101 x108 x87) x108) x87) (= x68 (x101 (x101 x108 x68) x108)))))))))
(assert (let ((x10 (x101 x87 x87)) (x11 (x101 x108 x87)) (x100 (x101 x108 x34)) (x43 (x101 x68 x87)) (x64 (x101 x68 x68)) (x133 (x101 x18 x108)) (x114 (x101 x34 x68)) (x97 (x101 x87 x108)) (x159 (x101 x34 x108)) (x129 (x101 x18 x68)) (x25 (x101 x34 x18)) (x73 (x101 x87 x18)) (x19 (x101 x18 x34)) (x139 (x101 x34 x34)) (x86 (x101 x18 x18)) (x107 (x101 x108 x18)) (x26 (x101 x68 x34)) (x84 (x101 x87 x34)) (x29 (x101 x108 x108)) (x8 (x101 x34 x87)) (x152 (x101 x68 x108)) (x15 (x101 x87 x68)) (x39 (x101 x18 x87)) (x93 (x101 x68 x18)) (x142 (x101 x108 x68))) (let ((x151 (not (= x68 x114))) (x137 (not (= x68 x97))) (x12 (not (= x129 x18))) (x112 (not (= x87 x84))) (x149 (not (= x15 x87))) (x156 (not (= x34 x19))) (x153 (not (= x15 x68))) (x55 (not (= x68 x133))) (x154 (not (= x100 x68))) (x131 (not (= x152 x108))) (x109 (not (= x10 x87))) (x155 (not (= x34 x86))) (x82 (not (= x19 x108))) (x74 (not (= x87 x93))) (x91 (not (= x19 x68))) (x77 (not (= x159 x87))) (x126 (not (= x87 x142))) (x32 (not (= x25 x68))) (x124 (not (= x84 x34))) (x52 (not (= x87 x64))) (x31 (not (= x34 x93))) (x46 (not (= x34 x100))) (x76 (not (= x26 x108))) (x30 (not (= x10 x108))) (x135 (not (= x133 x18))) (x88 (not (= x11 x68))) (x22 (not (= x87 x29))) (x98 (not (= x114 x34))) (x89 (not (= x139 x34))) (x28 (not (= x100 x108))) (x103 (not (= x64 x18))) (x140 (not (= x84 x68))) (x75 (not (= x64 x68))) (x102 (not (= x68 x129))) (x138 (not (= x11 x34))) (x70 (not (= x34 x73))) (x144 (not (= x34 x25))) (x62 (not (= x87 x100))) (x20 (not (= x64 x34))) (x63 (not (= x10 x18))) (x61 (not (= x15 x34))) (x23 (not (= x64 x108))) (x38 (not (= x68 x152))) (x14 (not (= x152 x34))) (x49 (not (= x108 x39))) (x122 (not (= x142 x18))) (x2 (not (= x139 x68))) (x147 (not (= x108 x73))) (x92 (not (= x39 x87))) (x47 (not (= x86 x87))) (x6 (not (= x34 x43))) (x58 (not (= x107 x108))) (x146 (not (= x93 x18))) (x65 (not (= x84 x108))) (x143 (not (= x68 x86))) (x41 (not (= x107 x34))) (x60 (not (= x26 x18))) (x44 (not (= x34 x29))) (x141 (not (= x11 x87))) (x134 (not (= x34 x8))) (x40 (not (= x87 x129))) (x3 (not (= x87 x97))) (x121 (not (= x108 x8))) (x117 (not (= x18 x15))) (x83 (not (= x34 x129))) (x36 (not (= x8 x87))) (x78 (not (= x68 x39))) (x37 (not (= x152 x18))) (x67 (not (= x68 x29))) (x72 (not (= x34 x10))) (x9 (not (= x18 x73))) (x4 (not (= x108 x139))) (x125 (not (= x18 x84))) (x148 (not (= x8 x18))) (x42 (not (= x11 x18))) (x45 (not (= x18 x86))) (x24 (not (= x18 x43))) (x127 (not (= x108 x86))) (x96 (not (= x26 x68))) (x5 (not (= x108 x133))) (x104 (not (= x142 x108))) (x106 (not (= x108 x159))) (x128 (not (= x39 x18))) (x116 (not (= x133 x34))) (x157 (not (= x18 x114))) (x90 (not (= x129 x108))) (x21 (not (= x87 x25))) (x136 (not (= x97 x108))) (x81 (not (= x25 x18))) (x50 (not (= x87 x139))) (x54 (not (= x108 x43))) (x53 (not (= x87 x73))) (x115 (not (= x68 x93))) (x57 (not (= x26 x34))) (x13 (not (= x34 x39))) (x85 (not (= x26 x87))) (x110 (not (= x152 x87))) (x59 (not (= x29 x108))) (x51 (not (= x18 x19))) (x105 (not (= x159 x68))) (x27 (not (= x133 x87))) (x33 (not (= x34 x159))) (x111 (not (= x114 x87))) (x158 (not (= x34 x142))) (x17 (not (= x100 x18))) (x95 (not (= x93 x108))) (x123 (not (= x68 x142))) (x71 (not (= x68 x107))) (x56 (not (= x108 x11))) (x99 (not (= x18 x139))) (x16 (not (= x87 x19))) (x119 (not (= x97 x18))) (x79 (not (= x68 x73))) (x48 (not (= x87 x43))) (x150 (not (= x97 x34))) (x69 (not (= x68 x43))) (x94 (not (= x25 x108))) (x113 (not (= x87 x107))) (x7 (not (= x68 x8))) (x118 (not (= x68 x10))) (x130 (not (= x18 x29))) (x120 (not (= x107 x18))) (x132 (not (= x108 x114))) (x66 (not (= x159 x18))) (x145 (not (= x108 x15)))) (or (and (and (and (or x135 x120) (and (or x51 x81) (and (or x12 x146) (or x9 x128)))) (or x45 x45)) (and (and (and (and (or x66 x17) (and (and (or x157 x60) (or x148 x125)) (or x99 x99))) (or x51 x81)) (and (and (or x12 x146) (and (and (and (or x103 x103) (or x24 x117)) (or x157 x60)) (or x122 x37))) (and (or x9 x128) (and (or x119 x42) (and (and (or x117 x24) (or x63 x63)) (or x125 x148)))))) (and (or x135 x120) (and (or x130 x130) (and (and (or x119 x42) (or x37 x122)) (or x17 x66)))))) (or (or (or (and (and (and (or x71 x55) (and (and (or x154 x105) (and (or x88 x137) (or x38 x123))) (or x67 x67))) (and (and (and (or x115 x102) (and (and (and (or x75 x75) (or x153 x69)) (or x151 x96)) (or x123 x38))) (and (and (and (or x7 x140) (and (or x118 x118) (or x69 x153))) (or x137 x88)) (or x78 x79))) (and (and (or x154 x105) (and (and (or x7 x140) (or x151 x96)) (or x2 x2))) (or x32 x91)))) (and (or x143 x143) (and (and (or x32 x91) (and (or x102 x115) (or x78 x79))) (or x71 x55)))) (and (and (and (and (and (and (or x126 x110) (and (and (or x52 x52) (or x149 x48)) (or x85 x111))) (or x74 x40)) (and (and (and (and (or x109 x109) (or x48 x149)) (or x36 x112)) (or x3 x141)) (or x92 x53))) (and (or x16 x21) (and (and (or x50 x50) (and (or x111 x85) (or x36 x112))) (or x62 x77)))) (and (or x113 x27) (and (and (or x62 x77) (and (or x3 x141) (or x126 x110))) (or x22 x22)))) (and (or x47 x47) (and (and (or x16 x21) (and (or x92 x53) (or x40 x74))) (or x113 x27))))) (and (and (and (or x116 x41) (and (or x144 x156) (and (or x31 x83) (or x13 x70)))) (or x155 x155)) (and (and (and (or x144 x156) (and (and (and (or x124 x134) (or x98 x57)) (or x89 x89)) (or x33 x46))) (and (and (or x83 x31) (and (and (or x57 x98) (and (or x61 x6) (or x20 x20))) (or x14 x158))) (and (or x70 x13) (and (or x150 x138) (and (and (or x72 x72) (or x61 x6)) (or x124 x134)))))) (and (or x116 x41) (and (and (and (or x14 x158) (or x150 x138)) (or x46 x33)) (or x44 x44)))))) (and (and (and (or x5 x58) (and (or x59 x59) (and (or x106 x28) (and (or x136 x56) (or x131 x104))))) (and (and (and (and (or x56 x136) (and (and (or x145 x54) (or x30 x30)) (or x65 x121))) (or x147 x49)) (and (and (or x104 x131) (and (and (or x54 x145) (or x23 x23)) (or x132 x76))) (or x90 x95))) (and (or x82 x94) (and (or x28 x106) (and (or x4 x4) (and (or x76 x132) (or x121 x65))))))) (and (and (and (or x94 x82) (and (or x147 x49) (or x95 x90))) (or x58 x5)) (or x127 x127))))))))
(assert (let ((x102 (= (x101 x18 x68) x18)) (x78 (= (x101 x18 x87) x18)) (x7 (= (x101 x34 x87) x34)) (x71 (= (x101 x108 x18) x108)) (x137 (= (x101 x87 x108) x87)) (x2 (= (x101 x34 x34) x34)) (x153 (= x87 (x101 x87 x68))) (x96 (= x68 (x101 x68 x34))) (x118 (= (x101 x87 x87) x87)) (x88 (= (x101 x108 x87) x108)) (x69 (= (x101 x68 x87) x68)) (x123 (= (x101 x108 x68) x108)) (x91 (= x18 (x101 x18 x34))) (x105 (= x34 (x101 x34 x108))) (x143 (= (x101 x18 x18) x18)) (x79 (= (x101 x87 x18) x87)) (x32 (= x34 (x101 x34 x18))) (x55 (= (x101 x18 x108) x18)) (x38 (= (x101 x68 x108) x68)) (x154 (= x108 (x101 x108 x34))) (x151 (= x34 (x101 x34 x68))) (x67 (= (x101 x108 x108) x108)) (x75 (= (x101 x68 x68) x68)) (x115 (= (x101 x68 x18) x68)) (x140 (= (x101 x87 x34) x87))) (or (or (and x143 x143) (or (and x71 x55) (or (or (and x79 x78) (and x102 x115)) (and x32 x91)))) (or (or (or (or (and x102 x115) (or (or (or (and x75 x75) (and x153 x69)) (and x151 x96)) (and x123 x38))) (or (or (and x88 x137) (or (or (and x118 x118) (and x69 x153)) (and x7 x140))) (and x78 x79))) (or (or (or (or (and x7 x140) (and x151 x96)) (and x2 x2)) (and x105 x154)) (and x32 x91))) (or (or (and x67 x67) (or (and x105 x154) (or (and x38 x123) (and x137 x88)))) (and x71 x55))))))
(assert (let ((x69 (x101 x34 (x101 x34 x34))) (x118 (x101 x108 (x101 x108 x108))) (x153 (x101 x87 (x101 x87 x87))) (x151 (x101 x18 (x101 x18 x18))) (x75 (x101 x68 (x101 x68 x68)))) (or (and (and (not (= x118 x18)) (and (not (= x69 x18)) (and (not (= x18 x153)) (not (= x75 x18))))) (not (= x18 x151))) (or (or (or (and (and (and (and (not (= x75 x68)) (not (= x153 x68))) (not (= x69 x68))) (not (= x68 x118))) (not (= x68 x151))) (and (and (not (= x87 x118)) (and (and (not (= x87 x75)) (not (= x87 x153))) (not (= x87 x69)))) (not (= x87 x151)))) (and (not (= x151 x34)) (and (not (= x34 x118)) (and (not (= x34 x69)) (and (not (= x34 x75)) (not (= x153 x34))))))) (and (and (not (= x108 x118)) (and (and (not (= x108 x153)) (not (= x75 x108))) (not (= x108 x69)))) (not (= x108 x151)))))))
(assert (let ((x32 (x101 x87 x18)) (x52 (x101 x18 x87)) (x124 (x101 x18 x108)) (x95 (x101 x18 x18)) (x151 (x101 x68 x108)) (x96 (x101 x68 x18)) (x73 (x101 x34 x34)) (x2 (x101 x34 x68)) (x69 (x101 x68 x87)) (x79 (x101 x87 x34)) (x153 (x101 x68 x68)) (x91 (x101 x87 x108)) (x118 (x101 x68 x34)) (x123 (x101 x108 x68)) (x61 (x101 x108 x108)) (x6 (x101 x108 x18)) (x139 (x101 x108 x34)) (x50 (x101 x18 x34)) (x111 (x101 x34 x18)) (x140 (x101 x87 x68)) (x38 (x101 x18 x68)) (x64 (x101 x108 x87)) (x78 (x101 x87 x87)) (x39 (x101 x34 x108)) (x143 (x101 x34 x87))) (let ((x142 (= x108 x78)) (x54 (= x18 x39)) (x77 (= x108 x73)) (x129 (= x18 x69)) (x67 (= x69 x68)) (x12 (= x38 x18)) (x63 (= x32 x34)) (x84 (= x68 x79)) (x159 (= x2 x34)) (x92 (= x64 x68)) (x119 (= x32 x108)) (x5 (= x87 x95)) (x56 (= x68 x6)) (x157 (= x111 x34)) (x86 (= x123 x87)) (x62 (= x108 x79)) (x156 (= x108 x39)) (x122 (= x108 x50)) (x30 (= x18 x61)) (x60 (= x34 x6)) (x134 (= x87 x61)) (x112 (= x87 x73)) (x145 (= x18 x91)) (x17 (= x108 x111)) (x36 (= x79 x87)) (x57 (= x39 x87)) (x90 (= x87 x124)) (x147 (= x87 x32)) (x150 (= x91 x34)) (x71 (= x78 x87)) (x16 (= x151 x68)) (x131 (= x111 x68)) (x26 (= x34 x78)) (x70 (= x91 x108)) (x83 (= x64 x108)) (x42 (= x96 x108)) (x22 (= x143 x18)) (x53 (= x68 x139)) (x109 (= x118 x68)) (x59 (= x87 x50)) (x27 (= x39 x68)) (x94 (= x6 x87)) (x75 (= x68 x153)) (x106 (= x52 x87)) (x120 (= x6 x18)) (x49 (= x96 x87)) (x136 (= x68 x95)) (x48 (= x68 x2)) (x141 (= x108 x143)) (x146 (= x52 x18)) (x133 (= x79 x18)) (x82 (= x87 x111)) (x25 (= x34 x118)) (x40 (= x73 x18)) (x14 (= x34 x139)) (x33 (= x61 x34)) (x144 (= x108 x61)) (x105 (= x140 x68)) (x13 (= x108 x151)) (x46 (= x39 x34)) (x102 (= x78 x68)) (x121 (= x50 x68)) (x19 (= x79 x34)) (x28 (= x38 x87)) (x10 (= x143 x68)) (x15 (= x69 x34)) (x113 (= x68 x61)) (x158 (= x64 x34)) (x88 (= x153 x34)) (x81 (= x32 x18)) (x107 (= x118 x18)) (x130 (= x108 x95)) (x137 (= x108 x153)) (x138 (= x151 x34)) (x132 (= x68 x38)) (x44 (= x123 x108)) (x127 (= x34 x52)) (x65 (= x124 x68)) (x55 (= x87 x69)) (x21 (= x68 x91)) (x47 (= x64 x87)) (x31 (= x108 x139)) (x43 (= x34 x140)) (x89 (= x34 x123)) (x99 (= x52 x108)) (x155 (= x139 x18)) (x154 (= x18 x153)) (x76 (= x68 x52)) (x116 (= x18 x123)) (x117 (= x124 x34)) (x135 (= x18 x111)) (x125 (= x108 x38)) (x11 (= x87 x143)) (x24 (= x34 x96)) (x97 (= x2 x87)) (x8 (= x73 x68)) (x51 (= x96 x18)) (x85 (= x118 x87)) (x110 (= x2 x108)) (x7 (= x87 x153)) (x104 (= x32 x68)) (x3 (= x118 x108)) (x93 (= x18 x140)) (x4 (= x68 x96)) (x126 (= x73 x34)) (x41 (= x18 x64)) (x20 (= x87 x139)) (x72 (= x151 x87)) (x37 (= x124 x108)) (x45 (= x18 x95)) (x9 (= x18 x124)) (x148 (= x95 x34)) (x114 (= x108 x140)) (x58 (= x34 x38)) (x103 (= x34 x50)) (x66 (= x108 x6)) (x115 (= x87 x140)) (x100 (= x143 x34)) (x149 (= x78 x18)) (x128 (= x18 x50)) (x29 (= x2 x18)) (x74 (= x68 x123)) (x23 (= x151 x18)) (x98 (= x91 x87)) (x152 (= x69 x108))) (and (and (and (and (and (and (and (or (or (or x110 (or x114 x137)) x44) x125) (or (or (or x3 (or x152 x137)) x13) x42)) (and (and (or (or x138 (or (or x15 x88) x25)) x24) (or (or x89 (or (or x88 x43) x159)) x58)) (and (and (or x49 (or x72 (or (or x7 x55) x85))) (or (or (or (or x7 x115) x97) x86) x28)) (and (or (or x74 (or x48 (or x105 x75))) x132) (or (or x16 (or (or x67 x75) x109)) x4))))) (and (or (or (or x107 (or x154 x129)) x23) x51) (or (or x116 (or (or x93 x154) x29)) x12))) (and (and (or (or x145 (or x133 (or x149 x93))) x81) (or (or (or (or x129 x149) x22) x41) x146)) (and (and (and (or (or x158 (or (or x26 x15) x100)) x127) (or (or (or (or x26 x43) x19) x150) x63)) (and (and (or (or (or x10 (or x67 x102)) x92) x76) (or (or (or x84 (or x105 x102)) x21) x104)) (and (or x147 (or x98 (or x36 (or x71 x115)))) (or x106 (or (or x11 (or x71 x55)) x47))))) (and (or x119 (or x70 (or (or x114 x142) x62))) (or x99 (or (or (or x142 x152) x141) x83)))))) (and (and (or (or (or x40 (or x133 x107)) x155) x128) (or (or x54 (or (or x22 x29) x40)) x135)) (and (and (and (and (or (or x20 (or (or x85 x36) x112)) x59) (or (or (or x112 (or x97 x11)) x57) x82)) (and (or x121 (or (or (or x109 x84) x8) x53)) (or (or (or (or x10 x48) x8) x27) x131))) (and (or x157 (or (or (or x100 x159) x126) x46)) (or (or x14 (or (or x25 x19) x126)) x103))) (and (or (or (or (or x3 x62) x77) x31) x122) (or (or (or x77 (or x110 x141)) x156) x17))))) (and (and (or (or (or x155 (or x41 x116)) x30) x120) (or x9 (or x30 (or (or x23 x145) x54)))) (and (and (and (or x60 (or x33 (or x14 (or x158 x89)))) (or (or (or x46 (or x138 x150)) x33) x117)) (and (and (or x94 (or x134 (or (or x86 x47) x20))) (or (or x134 (or x57 (or x98 x72))) x90)) (and (or x56 (or x113 (or x53 (or x74 x92)))) (or x65 (or (or x27 (or x16 x21)) x113))))) (and (or (or (or x31 (or x83 x44)) x144) x66) (or x37 (or x144 (or x156 (or x13 x70)))))))) (and (and (or x45 (or (or (or x81 x51) x135) x120)) (or x45 (or x9 (or (or x12 x146) x128)))) (and (and (or (or (or (or x125 x99) x122) x37) x130) (or x130 (or x66 (or (or x42 x119) x17)))) (and (and (or x148 (or (or (or x63 x24) x157) x60)) (or (or (or (or x127 x58) x103) x117) x148)) (and (and (or x136 (or (or (or x4 x104) x131) x56)) (or x136 (or (or x121 (or x76 x132)) x65))) (and (or (or (or (or x147 x49) x82) x94) x5) (or (or x90 (or x59 (or x28 x106))) x5))))))))))
(assert (let ((x118 (x101 x108 x108)) (x151 (x101 x18 x18)) (x69 (x101 x34 x34)) (x153 (x101 x87 x87)) (x75 (x101 x68 x68))) (or (and (not (= x18 x151)) (and (not (= x118 x18)) (and (and (not (= x75 x18)) (not (= x18 x153))) (not (= x18 x69))))) (or (or (and (not (= x34 x151)) (and (and (and (not (= x34 x75)) (not (= x153 x34))) (not (= x34 x69))) (not (= x34 x118)))) (or (and (not (= x151 x87)) (and (and (not (= x69 x87)) (and (not (= x153 x87)) (not (= x87 x75)))) (not (= x118 x87)))) (and (and (and (not (= x68 x69)) (and (not (= x68 x75)) (not (= x153 x68)))) (not (= x118 x68))) (not (= x68 x151))))) (and (not (= x108 x151)) (and (not (= x118 x108)) (and (not (= x108 x69)) (and (not (= x75 x108)) (not (= x108 x153))))))))))
(assert (let ((x2 (x101 x108 x87)) (x78 (x101 x108 x108)) (x137 (x101 x34 x34)) (x123 (x101 x18 x87)) (x102 (x101 x87 x108)) (x140 (x101 x34 x87)) (x38 (x101 x68 x34)) (x115 (x101 x34 x108)) (x154 (x101 x108 x34)) (x79 (x101 x18 x108)) (x75 (x101 x68 x68)) (x7 (x101 x87 x87)) (x105 (x101 x18 x34)) (x55 (x101 x34 x18)) (x153 (x101 x87 x68)) (x71 (x101 x108 x18)) (x151 (x101 x18 x68)) (x91 (x101 x68 x18)) (x69 (x101 x34 x68)) (x67 (x101 x68 x108)) (x88 (x101 x87 x34)) (x96 (x101 x68 x87)) (x32 (x101 x87 x18)) (x118 (x101 x108 x68)) (x143 (x101 x18 x18))) (and (and (and (not (= x71 x143)) (and (and (and (and (not (= x32 x71)) (and (and (not (= x143 x91)) (and (and (not (= x32 x91)) (not (= x55 x91))) (not (= x71 x91)))) (not (= x55 x32)))) (not (= x143 x32))) (not (= x55 x71))) (not (= x143 x55)))) (and (and (and (and (not (= x78 x115)) (and (and (not (= x78 x102)) (and (not (= x115 x102)) (and (and (not (= x67 x78)) (and (not (= x102 x67)) (not (= x67 x115)))) (not (= x67 x79))))) (not (= x79 x102)))) (not (= x115 x79))) (not (= x78 x79))) (and (and (and (and (and (not (= x88 x105)) (and (not (= x88 x154)) (and (and (and (not (= x154 x38)) (and (not (= x137 x38)) (not (= x38 x88)))) (not (= x105 x38))) (not (= x88 x137))))) (not (= x154 x137))) (not (= x137 x105))) (not (= x105 x154))) (and (and (and (and (not (= x140 x2)) (and (and (not (= x2 x7)) (and (and (and (not (= x2 x96)) (and (not (= x96 x7)) (not (= x140 x96)))) (not (= x123 x96))) (not (= x7 x140)))) (not (= x123 x7)))) (not (= x140 x123))) (not (= x2 x123))) (and (and (not (= x69 x151)) (and (and (and (and (and (and (and (not (= x75 x153)) (not (= x75 x69))) (not (= x118 x75))) (not (= x75 x151))) (not (= x69 x153))) (not (= x118 x153))) (not (= x151 x153))) (not (= x69 x118)))) (not (= x118 x151))))))) (and (and (and (not (= x78 x71)) (and (not (= x154 x71)) (and (and (and (and (not (= x154 x2)) (and (and (and (not (= x154 x118)) (not (= x2 x118))) (not (= x78 x118))) (not (= x71 x118)))) (not (= x78 x2))) (not (= x71 x2))) (not (= x78 x154))))) (and (and (and (not (= x91 x67)) (and (and (not (= x67 x38)) (and (not (= x96 x91)) (and (not (= x96 x67)) (and (not (= x96 x38)) (and (and (not (= x67 x75)) (and (not (= x38 x75)) (not (= x96 x75)))) (not (= x91 x75))))))) (not (= x91 x38)))) (and (not (= x32 x102)) (and (not (= x32 x88)) (and (and (and (and (not (= x7 x88)) (and (not (= x32 x153)) (and (and (not (= x88 x153)) (not (= x7 x153))) (not (= x153 x102))))) (not (= x7 x102))) (not (= x7 x32))) (not (= x88 x102)))))) (and (and (and (and (and (not (= x115 x140)) (and (not (= x140 x137)) (and (and (and (not (= x69 x137)) (not (= x140 x69))) (not (= x115 x69))) (not (= x69 x55))))) (not (= x140 x55))) (not (= x137 x115))) (not (= x55 x137))) (not (= x55 x115))))) (and (not (= x143 x79)) (and (not (= x105 x143)) (and (and (and (and (not (= x105 x123)) (and (not (= x151 x143)) (and (not (= x151 x79)) (and (not (= x151 x123)) (not (= x151 x105)))))) (not (= x79 x123))) (not (= x123 x143))) (not (= x79 x105)))))))))
(assert (and (and (or (= (x101 (x101 x18 x108) x18) x108) (or (or (or (= (x101 (x101 x87 x108) x87) x108) (= x108 (x101 (x101 x68 x108) x68))) (= x108 (x101 (x101 x34 x108) x34))) (= x108 (x101 (x101 x108 x108) x108)))) (and (and (or (or (= (x101 (x101 x108 x68) x108) x68) (or (= x68 (x101 (x101 x34 x68) x34)) (or (= x68 (x101 (x101 x68 x68) x68)) (= (x101 (x101 x87 x68) x87) x68)))) (= (x101 (x101 x18 x68) x18) x68)) (or (= (x101 (x101 x18 x87) x18) x87) (or (= (x101 (x101 x108 x87) x108) x87) (or (= (x101 (x101 x34 x87) x34) x87) (or (= x87 (x101 (x101 x87 x87) x87)) (= x87 (x101 (x101 x68 x87) x68))))))) (or (or (or (or (= x34 (x101 (x101 x87 x34) x87)) (= x34 (x101 (x101 x68 x34) x68))) (= (x101 (x101 x34 x34) x34) x34)) (= x34 (x101 (x101 x108 x34) x108))) (= (x101 (x101 x18 x34) x18) x34)))) (or (or (or (or (= x18 (x101 (x101 x87 x18) x87)) (= (x101 (x101 x68 x18) x68) x18)) (= (x101 (x101 x34 x18) x34) x18)) (= x18 (x101 (x101 x108 x18) x108))) (= x18 (x101 (x101 x18 x18) x18)))))
(assert (or (or (or (or (= x68 (x101 x68 (x101 x68 x68))) (= x87 (x101 x87 (x101 x87 x87)))) (= (x101 x34 (x101 x34 x34)) x34)) (= (x101 x108 (x101 x108 x108)) x108)) (= x18 (x101 x18 (x101 x18 x18)))))
(assert (and (and (= x108 (x101 x87 x87)) (and (= x34 (x101 x108 x87)) (= x68 (x101 x34 x34)))) (= x18 (x101 x87 x34))))
(assert (let ((x153 (x101 x87 x87)) (x69 (x101 x34 x34)) (x118 (x101 x108 x108)) (x151 (x101 x18 x18)) (x75 (x101 x68 x68))) (and (not (= (x101 x151 x151) x18)) (and (not (= (x101 x118 x118) x108)) (and (and (not (= x68 (x101 x75 x75))) (not (= x87 (x101 x153 x153)))) (not (= (x101 x69 x69) x34)))))))
(check-sat)
(exit)
